sat
(model
(declare-sort BoundSet 0)
; cardinality of UnboundSet is 2
(declare-sort UnboundSet 0)
; rep: @uc_UnboundSet_0
; rep: @uc_UnboundSet_1
(define-fun b () UnboundSet @uc_UnboundSet_0)
(define-fun c () UnboundSet @uc_UnboundSet_0)
(define-fun e () UnboundSet @uc_UnboundSet_0)
(define-fun d () UnboundSet @uc_UnboundSet_0)
(define-fun a () UnboundSet @uc_UnboundSet_1)
(define-fun IsGiven ((BOUND_VARIABLE_340 BoundSet) (BOUND_VARIABLE_341 UnboundSet)) Bool false)
(define-fun IsInLimbo ((BOUND_VARIABLE_349 UnboundSet)) Bool false)
(define-fun IsInHeaven ((BOUND_VARIABLE_349 UnboundSet)) Bool false)
(define-fun IsLivedLike ((BOUND_VARIABLE_340 BoundSet) (BOUND_VARIABLE_341 UnboundSet)) Bool false)
(define-fun IsGood ((BOUND_VARIABLE_366 BoundSet)) Bool false)
(define-fun IsBeautiful ((BOUND_VARIABLE_349 UnboundSet)) Bool false)
(define-fun IsAPlace ((BOUND_VARIABLE_366 BoundSet)) Bool false)
(define-fun ~IsLiked ((BOUND_VARIABLE_383 BoundSet) (BOUND_VARIABLE_384 BoundSet)) Bool false)
(define-fun IsHappy ((BOUND_VARIABLE_349 UnboundSet)) Bool false)
(define-fun IsWornBy ((BOUND_VARIABLE_349 UnboundSet)) Bool false)
(define-fun IsPartOfFamily ((BOUND_VARIABLE_366 BoundSet)) Bool false)
(define-fun IsDone ((BOUND_VARIABLE_366 BoundSet)) Bool false)
(define-fun IsSpooky ((BOUND_VARIABLE_366 BoundSet)) Bool false)
(define-fun IsMorallyJustifiable ((BOUND_VARIABLE_366 BoundSet)) Bool false)
(define-fun IsTeacher ((BOUND_VARIABLE_366 BoundSet)) Bool false)
(define-fun IsBestClass ((BOUND_VARIABLE_366 BoundSet)) Bool false)
(define-fun IsBest ((BOUND_VARIABLE_366 BoundSet)) Bool false)
(define-fun IsClass ((BOUND_VARIABLE_366 BoundSet)) Bool false)
(define-fun IsBlonde ((BOUND_VARIABLE_349 UnboundSet)) Bool false)
(define-fun IsThere ((BOUND_VARIABLE_349 UnboundSet)) Bool false)
(define-fun IsSale ((BOUND_VARIABLE_349 UnboundSet)) Bool false)
(define-fun ~IsBelieveIn ((BOUND_VARIABLE_349 UnboundSet)) Bool true)
(define-fun IsBurnInHell ((BOUND_VARIABLE_349 UnboundSet)) Bool true)
(define-fun IsForever ((BOUND_VARIABLE_349 UnboundSet)) Bool false)
)
